50

92 15 152
89 29 216
87 13 155
84 25 238
82 15 166
82 30 273
81 2 148
75 28 225
73 3 238
71 31 253
67 28 215
67 21 135
63 10 256
59 15 278
57 23 181
56 6 272
52 12 191
49 8 151
48 20 217
47 24 177
46 21 296
41 5 295
39 2 137
38 7 173
36 2 298
35 10 242
34 17 288
34 14 198
30 13 208
29 2 274
26 1 270
21 8 300
20 7 263
19 3 153
18 1 161
15 1 196
15 6 257
13 3 154
11 4 135
10 2 266
10 4 212
10 3 164
9 4 171
8 3 299
8 3 247
7 2 282
6 3 278
6 3 194
6 2 278
3 2 270
